(set-info :smt-lib-version 2.6)
(set-logic UFLIA)
(set-info :source |
Generated by: Geoff Sutcliffe
Generated on: 2026-03-11
Generator: TPTPWorld
Application: Benchmarking automated theorem provers
Time limit: 120.0

These benchmarks are translations from the TPTP Library (Thousands of
Problems for Theorem Provers), see http://www.cs.miami.edu/~tptp/

The TPTP is maintained by Geoff Sutcliffe, and he contributed this
selection of benchmarks to SMT-LIB.  They were exported from the
v9.2.1 realease of TPTP.
|)
(set-info :category "industrial")
(set-info :status "unknown")
; SZS status Success
(declare-sort $$unsorted 0)
(declare-sort tptp.set 0)
(declare-sort tptp.element 0)
(declare-fun tptp.empty_set () tptp.set)
(declare-fun tptp.singleton (tptp.element) tptp.set)
(declare-fun tptp.member (tptp.element tptp.set) Bool)
(declare-fun tptp.subset (tptp.set tptp.set) Bool)
(declare-fun tptp.intersection (tptp.set tptp.set) tptp.set)
(declare-fun tptp.union (tptp.set tptp.set) tptp.set)
(declare-fun tptp.difference (tptp.set tptp.set) tptp.set)
(declare-fun tptp.complement (tptp.set) tptp.set)
(declare-fun tptp.cardinality (tptp.set) Int)
(assert (forall ((S tptp.set)) (= (forall ((X tptp.element)) (not (tptp.member X S))) (= S tptp.empty_set))))
(assert (forall ((X tptp.element) (A tptp.element)) (= (tptp.member X (tptp.singleton A)) (= X A))))
(assert (forall ((A tptp.set) (B tptp.set)) (= (tptp.subset A B) (forall ((X tptp.element)) (=> (tptp.member X A) (tptp.member X B))))))
(assert (forall ((X tptp.element) (A tptp.set) (B tptp.set)) (= (tptp.member X (tptp.intersection A B)) (and (tptp.member X A) (tptp.member X B)))))
(assert (forall ((X tptp.element) (A tptp.set) (B tptp.set)) (= (tptp.member X (tptp.union A B)) (or (tptp.member X A) (tptp.member X B)))))
(assert (forall ((B tptp.element) (A tptp.set) (E tptp.set)) (= (tptp.member B (tptp.difference E A)) (and (tptp.member B E) (not (tptp.member B A))))))
(assert (forall ((X tptp.element) (S tptp.set)) (= (tptp.member X S) (not (tptp.member X (tptp.complement S))))))
(assert (forall ((S tptp.set)) (= (= (tptp.cardinality S) 0) (= S tptp.empty_set))))
(assert (forall ((X tptp.element) (S tptp.set)) (let ((_let_1 (tptp.singleton X))) (= (= (tptp.intersection _let_1 S) _let_1) (= (tptp.cardinality (tptp.union _let_1 S)) (tptp.cardinality S))))))
(assert (forall ((X tptp.element) (S tptp.set)) (let ((_let_1 (tptp.singleton X))) (= (= (tptp.intersection _let_1 S) tptp.empty_set) (= (tptp.cardinality (tptp.union _let_1 S)) (+ (tptp.cardinality S) 1))))))
(assert (forall ((S tptp.set) (T tptp.set)) (let ((_let_1 (tptp.intersection S T))) (= (= (tptp.cardinality _let_1) 0) (= _let_1 tptp.empty_set)))))
(assert (forall ((A tptp.set) (B tptp.set)) (= (= (tptp.intersection A B) tptp.empty_set) (= (tptp.cardinality (tptp.union A B)) (+ (tptp.cardinality A) (tptp.cardinality B))))))
(assert (not (forall ((X tptp.element) (C tptp.set) (Size Int)) (=> (and (not (tptp.member X C)) (= Size (tptp.cardinality C))) (= (+ Size 1) (tptp.cardinality (tptp.union (tptp.singleton X) C)))))))
(check-sat)
(exit)
